\ This file has been generated by DOcplex
\ ENCODING=ISO-8859-1
\Problem name: VCIT _ VCIT (bench)

Minimize
 obj: [ 72 fund_enriched.pmv_tgt_Investment_Grade_Credit_Capital_Goods^2
      + 72 fund_enriched.pmv_tgt_Investment_Grade_Credit_Insurance^2
      + 72 fund_enriched.pmv_tgt_Investment_Grade_Credit_Transportation^2 ]/2
Subject To
 trade_num_upper_limit: iTrade_020002BJ9 + iTrade_026874DS3 + iTrade_081437AT2
                        + iTrade_097023CJ2 + iTrade_13645RAD6 + iTrade_13645RBF0
                        + iTrade_14448CBC7 + iTrade_15135BAW1 + iTrade_21871XAS8
                        + iTrade_24422EWZ8 + iTrade_24422EXP9 + iTrade_314353AA1
                        + iTrade_36166NAK9 + iTrade_438516CM6 + iTrade_443201AC2
                        + iTrade_444859BR2 + iTrade_444859BV3 + iTrade_444859BY7
                        + iTrade_444859CA8 + iTrade_45687VAB2 + iTrade_539830CD9
                        + iTrade_540424AT5 + iTrade_56501RAN6 + iTrade_655844CR7
                        + iTrade_655844CT3 + iTrade_75513EAD3 + iTrade_759351AP4
                        + iTrade_760759BA7 + iTrade_760759BC3 + iTrade_907818FX1
                        + iTrade_91324PEJ7 <= 500

                                                                                                             limit_sodraw.filterLevel1_sodraw.filterLevel3_Investment_Grade_Credit_Capital_Goods_fund_enriched.pmv_min:
                                                                                                            0.142554255732 iTrade_081437AT2
                                                                                                            + 0.136494255226 iTrade_097023CJ2
                                                                                                            + 0.169699231775 iTrade_14448CBC7
                                                                                                            + 0.163573896425 iTrade_24422EWZ8
                                                                                                            + 0.163110243138 iTrade_24422EXP9
                                                                                                            + 0.159129840912 iTrade_36166NAK9
                                                                                                            + 0.158339757289 iTrade_438516CM6
                                                                                                            + 0.159358774294 iTrade_443201AC2
                                                                                                            + 0.168491136338 iTrade_45687VAB2
                                                                                                            + 0.160392157836 iTrade_539830CD9
                                                                                                            + 0.141181230939 iTrade_75513EAD3
                                                                                                            + 0.132126278605 iTrade_760759BA7
                                                                                                            + 0.160250342082 iTrade_760759BC3
                                                                                                             >= 
                                                                                                            4.758736462913

                                                                                                             limit_sodraw.filterLevel1_sodraw.filterLevel3_Investment_Grade_Credit_Capital_Goods_fund_enriched.pmv_max:
                                                                                                            0.855325534391 iTrade_081437AT2
                                                                                                            + 0.354885063587 iTrade_097023CJ2
                                                                                                            + 1.018195390650 iTrade_14448CBC7
                                                                                                            + 0.556151247846 iTrade_24422EWZ8
                                                                                                            + 0.978661458827 iTrade_24422EXP9
                                                                                                            + 0.954779045474 iTrade_36166NAK9
                                                                                                            + 0.950038543734 iTrade_438516CM6
                                                                                                            + 0.478076322883 iTrade_443201AC2
                                                                                                            + 0.303284045408 iTrade_45687VAB2
                                                                                                            + 0.962352947018 iTrade_539830CD9
                                                                                                            + 0.762378647069 iTrade_75513EAD3
                                                                                                            + 0.792757671632 iTrade_760759BA7
                                                                                                            + 0.961502052493 iTrade_760759BC3
                                                                                                             <= 
                                                                                                            6.847872350911
 fund_enriched.pmv_Investment_Grade_Credit_Capital_Goods_tgt:
                                                              fund_enriched.pmv_tgt_Investment_Grade_Credit_Capital_Goods
                                                              - 0.498939895061 iTrade_081437AT2
                                                              - 0.245689659406 iTrade_097023CJ2
                                                              - 0.593947311212 iTrade_14448CBC7
                                                              - 0.359862572135 iTrade_24422EWZ8
                                                              - 0.570885850982 iTrade_24422EXP9
                                                              - 0.556954443193 iTrade_36166NAK9
                                                              - 0.554189150511 iTrade_438516CM6
                                                              - 0.318717548589 iTrade_443201AC2
                                                              - 0.235887590873 iTrade_45687VAB2
                                                              - 0.561372552427 iTrade_539830CD9
                                                              - 0.451779939004 iTrade_75513EAD3
                                                              - 0.462441975119 iTrade_760759BA7
                                                              - 0.560876197288 iTrade_760759BC3
                                                               = 
                                                              -5.803304406912

                                                                                                                limit_sodraw.filterLevel1_sodraw.filterLevel3_Investment_Grade_Credit_Capital_Goods_fund_enriched.dxsCtr_min:
                                                                                                               66.580961700177 iTrade_081437AT2
                                                                                                               + 172.307519587982 iTrade_097023CJ2
                                                                                                               + 112.366506736542 iTrade_14448CBC7
                                                                                                               + 37.095273788500 iTrade_24422EWZ8
                                                                                                               + 80.555063150722 iTrade_24422EXP9
                                                                                                               + 74.709144256526 iTrade_36166NAK9
                                                                                                               + 67.614516277731 iTrade_438516CM6
                                                                                                               + 70.772674294288 iTrade_443201AC2
                                                                                                               + 100.464452597620 iTrade_45687VAB2
                                                                                                               + 79.275098465257 iTrade_539830CD9
                                                                                                               + 47.017475040518 iTrade_75513EAD3
                                                                                                               + 76.940091043469 iTrade_760759BA7
                                                                                                               + 93.591423007772 iTrade_760759BC3
                                                                                                                >= 
                                                                                                               1780.689260450720

                                                                                                                limit_sodraw.filterLevel1_sodraw.filterLevel3_Investment_Grade_Credit_Capital_Goods_fund_enriched.dxsCtr_max:
                                                                                                               399.485770201062 iTrade_081437AT2
                                                                                                               + 447.999550928754 iTrade_097023CJ2
                                                                                                               + 674.199040419254 iTrade_14448CBC7
                                                                                                               + 126.123930880899 iTrade_24422EWZ8
                                                                                                               + 483.330378904333 iTrade_24422EXP9
                                                                                                               + 448.254865539159 iTrade_36166NAK9
                                                                                                               + 405.687097666385 iTrade_438516CM6
                                                                                                               + 212.318022882864 iTrade_443201AC2
                                                                                                               + 180.836014675715 iTrade_45687VAB2
                                                                                                               + 475.650590791540 iTrade_539830CD9
                                                                                                               + 253.894365218798 iTrade_75513EAD3
                                                                                                               + 461.640546260812 iTrade_760759BA7
                                                                                                               + 561.548538046633 iTrade_760759BC3
                                                                                                                <= 
                                                                                                               3869.825148448374

                                                                                                         limit_sodraw.filterLevel1_sodraw.filterLevel3_Investment_Grade_Credit_Insurance_fund_enriched.pmv_min:
                                                                                                        0.131670942852 iTrade_020002BJ9
                                                                                                        + 0.160843172712 iTrade_026874DS3
                                                                                                        + 0.139227266341 iTrade_15135BAW1
                                                                                                        + 0.166666666667 iTrade_21871XAS8
                                                                                                        + 0.130429457604 iTrade_444859BR2
                                                                                                        + 0.165217306235 iTrade_444859BV3
                                                                                                        + 0.165845705010 iTrade_444859BY7
                                                                                                        + 0.160946345559 iTrade_444859CA8
                                                                                                        + 0.149524865884 iTrade_540424AT5
                                                                                                        + 0.149074149255 iTrade_56501RAN6
                                                                                                        + 0.147704569055 iTrade_759351AP4
                                                                                                        + 0.157006922178 iTrade_91324PEJ7
                                                                                                         >= 
                                                                                                        4.134392251914

                                                                                                         limit_sodraw.filterLevel1_sodraw.filterLevel3_Investment_Grade_Credit_Insurance_fund_enriched.pmv_max:
                                                                                                        0.790025657112 iTrade_020002BJ9
                                                                                                        + 0.965059036271 iTrade_026874DS3
                                                                                                        + 0.835363598046 iTrade_15135BAW1
                                                                                                        + iTrade_21871XAS8
                                                                                                        + 0.469546047373 iTrade_444859BR2
                                                                                                        + 0.991303837408 iTrade_444859BV3
                                                                                                        + 0.995074230061 iTrade_444859BY7
                                                                                                        + 0.965678073357 iTrade_444859CA8
                                                                                                        + 0.897149195306 iTrade_540424AT5
                                                                                                        + 0.894444895531 iTrade_56501RAN6
                                                                                                        + 0.886227414329 iTrade_759351AP4
                                                                                                        + 0.659429073147 iTrade_91324PEJ7
                                                                                                         <= 
                                                                                                        6.223528139912
 fund_enriched.pmv_Investment_Grade_Credit_Insurance_tgt:
                                                          fund_enriched.pmv_tgt_Investment_Grade_Credit_Insurance
                                                          - 0.460848299982 iTrade_020002BJ9
                                                          - 0.562951104491 iTrade_026874DS3
                                                          - 0.487295432194 iTrade_15135BAW1
                                                          - 0.583333333333 iTrade_21871XAS8
                                                          - 0.299987752488 iTrade_444859BR2
                                                          - 0.578260571821 iTrade_444859BV3
                                                          - 0.580459967536 iTrade_444859BY7
                                                          - 0.563312209458 iTrade_444859CA8
                                                          - 0.523337030595 iTrade_540424AT5
                                                          - 0.521759522393 iTrade_56501RAN6
                                                          - 0.516965991692 iTrade_759351AP4
                                                          - 0.408217997662 iTrade_91324PEJ7
                                                           = -5.178960195913

                                                                                                            limit_sodraw.filterLevel1_sodraw.filterLevel3_Investment_Grade_Credit_Insurance_fund_enriched.dxsCtr_min:
                                                                                                           58.737025911482 iTrade_020002BJ9
                                                                                                           + 96.531954803010 iTrade_026874DS3
                                                                                                           + 108.132433111611 iTrade_15135BAW1
                                                                                                           + 134.876501555653 iTrade_21871XAS8
                                                                                                           + 98.568775241532 iTrade_444859BR2
                                                                                                           + 138.758277483465 iTrade_444859BV3
                                                                                                           + 153.048450170402 iTrade_444859BY7
                                                                                                           + 96.778086652000 iTrade_444859CA8
                                                                                                           + 51.817129313735 iTrade_540424AT5
                                                                                                           + 65.430259891726 iTrade_56501RAN6
                                                                                                           + 59.874351929087 iTrade_759351AP4
                                                                                                           + 58.780070486294 iTrade_91324PEJ7
                                                                                                            >= 
                                                                                                           1991.429728208550

                                                                                                            limit_sodraw.filterLevel1_sodraw.filterLevel3_Investment_Grade_Credit_Insurance_fund_enriched.dxsCtr_max:
                                                                                                           352.422155468891 iTrade_020002BJ9
                                                                                                           + 579.191728818059 iTrade_026874DS3
                                                                                                           + 648.794598669664 iTrade_15135BAW1
                                                                                                           + 809.259009333917 iTrade_21871XAS8
                                                                                                           + 354.847590869517 iTrade_444859BR2
                                                                                                           + 832.549664900791 iTrade_444859BV3
                                                                                                           + 918.290701022414 iTrade_444859BY7
                                                                                                           + 580.668519912001 iTrade_444859CA8
                                                                                                           + 310.902775882413 iTrade_540424AT5
                                                                                                           + 392.581559350358 iTrade_56501RAN6
                                                                                                           + 359.246111574520 iTrade_759351AP4
                                                                                                           + 246.876296042433 iTrade_91324PEJ7
                                                                                                            <= 
                                                                                                           4080.565616206205

                                                                                                              limit_sodraw.filterLevel1_sodraw.filterLevel3_Investment_Grade_Credit_Transportation_fund_enriched.pmv_min:
                                                                                                             0.181096996498 iTrade_13645RAD6
                                                                                                             + 0.139422190293 iTrade_13645RBF0
                                                                                                             + 0.106981473407 iTrade_314353AA1
                                                                                                             + 0.164500090971 iTrade_655844CR7
                                                                                                             + 0.167560129362 iTrade_655844CT3
                                                                                                             + 0.142303063104 iTrade_907818FX1
                                                                                                              >= 
                                                                                                             0.240014083139

                                                                                                              limit_sodraw.filterLevel1_sodraw.filterLevel3_Investment_Grade_Credit_Transportation_fund_enriched.pmv_max:
                                                                                                             2.173163957979 iTrade_13645RAD6
                                                                                                             + 1.143261960399 iTrade_13645RBF0
                                                                                                             + 1.283777680885 iTrade_314353AA1
                                                                                                             + 3.948002183310 iTrade_655844CR7
                                                                                                             + 0.402144310470 iTrade_655844CT3
                                                                                                             + 1.707636757244 iTrade_907818FX1
                                                                                                              <= 
                                                                                                             2.329149971137
 fund_enriched.pmv_Investment_Grade_Credit_Transportation_tgt:
                                                               fund_enriched.pmv_tgt_Investment_Grade_Credit_Transportation
                                                               - 1.177130477239 iTrade_13645RAD6
                                                               - 0.641342075346 iTrade_13645RBF0
                                                               - 0.695379577146 iTrade_314353AA1
                                                               - 2.056251137141 iTrade_655844CR7
                                                               - 0.284852219916 iTrade_655844CT3
                                                               - 0.924969910174 iTrade_907818FX1
                                                                = 
                                                               -1.284582027138

                                                                                                                 limit_sodraw.filterLevel1_sodraw.filterLevel3_Investment_Grade_Credit_Transportation_fund_enriched.dxsCtr_min:
                                                                                                                75.447411041377 iTrade_13645RAD6
                                                                                                                + 52.698428029707 iTrade_13645RBF0
                                                                                                                + 33.585522670469 iTrade_314353AA1
                                                                                                                + 44.367234025541 iTrade_655844CR7
                                                                                                                + 92.051777955608 iTrade_655844CT3
                                                                                                                + 47.557459325324 iTrade_907818FX1
                                                                                                                 >= 
                                                                                                                -479.881210498972

                                                                                                                 limit_sodraw.filterLevel1_sodraw.filterLevel3_Investment_Grade_Credit_Transportation_fund_enriched.dxsCtr_max:
                                                                                                                905.368932496520 iTrade_13645RAD6
                                                                                                                + 432.127109843596 iTrade_13645RBF0
                                                                                                                + 403.026272045625 iTrade_314353AA1
                                                                                                                + 1064.813616612981 iTrade_655844CR7
                                                                                                                + 220.924267093459 iTrade_655844CT3
                                                                                                                + 570.689511903885 iTrade_907818FX1
                                                                                                                 <= 
                                                                                                                1609.254677498683
 low_cnstr_cash: 0.131670942852 iTrade_020002BJ9
                 + 0.160843172712 iTrade_026874DS3
                 + 0.142554255732 iTrade_081437AT2
                 + 0.136494255226 iTrade_097023CJ2
                 + 0.181096996498 iTrade_13645RAD6
                 + 0.139422190293 iTrade_13645RBF0
                 + 0.169699231775 iTrade_14448CBC7
                 + 0.139227266341 iTrade_15135BAW1
                 + 0.166666666667 iTrade_21871XAS8
                 + 0.163573896425 iTrade_24422EWZ8
                 + 0.163110243138 iTrade_24422EXP9
                 + 0.106981473407 iTrade_314353AA1
                 + 0.159129840912 iTrade_36166NAK9
                 + 0.158339757289 iTrade_438516CM6
                 + 0.159358774294 iTrade_443201AC2
                 + 0.130429457604 iTrade_444859BR2
                 + 0.165217306235 iTrade_444859BV3
                 + 0.165845705010 iTrade_444859BY7
                 + 0.160946345559 iTrade_444859CA8
                 + 0.168491136338 iTrade_45687VAB2
                 + 0.160392157836 iTrade_539830CD9
                 + 0.149524865884 iTrade_540424AT5
                 + 0.149074149255 iTrade_56501RAN6
                 + 0.164500090971 iTrade_655844CR7
                 + 0.167560129362 iTrade_655844CT3
                 + 0.141181230939 iTrade_75513EAD3
                 + 0.147704569055 iTrade_759351AP4
                 + 0.132126278605 iTrade_760759BA7
                 + 0.160250342082 iTrade_760759BC3
                 + 0.142303063104 iTrade_907818FX1
                 + 0.157006922178 iTrade_91324PEJ7 >= 2.600974180557
 cnstr_cash: 0.790025657112 iTrade_020002BJ9 + 0.965059036271 iTrade_026874DS3
             + 0.855325534391 iTrade_081437AT2 + 0.354885063587 iTrade_097023CJ2
             + 2.173163957979 iTrade_13645RAD6 + 1.143261960399 iTrade_13645RBF0
             + 1.018195390650 iTrade_14448CBC7 + 0.835363598046 iTrade_15135BAW1
             + iTrade_21871XAS8 + 0.556151247846 iTrade_24422EWZ8
             + 0.978661458827 iTrade_24422EXP9 + 1.283777680885 iTrade_314353AA1
             + 0.954779045474 iTrade_36166NAK9 + 0.950038543734 iTrade_438516CM6
             + 0.478076322883 iTrade_443201AC2 + 0.469546047373 iTrade_444859BR2
             + 0.991303837408 iTrade_444859BV3 + 0.995074230061 iTrade_444859BY7
             + 0.965678073357 iTrade_444859CA8 + 0.303284045408 iTrade_45687VAB2
             + 0.962352947018 iTrade_539830CD9 + 0.897149195306 iTrade_540424AT5
             + 0.894444895531 iTrade_56501RAN6 + 3.948002183310 iTrade_655844CR7
             + 0.402144310470 iTrade_655844CT3 + 0.762378647069 iTrade_75513EAD3
             + 0.886227414329 iTrade_759351AP4 + 0.792757671632 iTrade_760759BA7
             + 0.961502052493 iTrade_760759BC3 + 1.707636757244 iTrade_907818FX1
             + 0.659429073147 iTrade_91324PEJ7 <= 10.435233760548

Bounds
 0 <= iTrade_020002BJ9 <= 1
 0 <= iTrade_026874DS3 <= 1
 0 <= iTrade_081437AT2 <= 1
 0 <= iTrade_097023CJ2 <= 1
 0 <= iTrade_13645RAD6 <= 1
 0 <= iTrade_13645RBF0 <= 1
 0 <= iTrade_14448CBC7 <= 1
 0 <= iTrade_15135BAW1 <= 1
 0 <= iTrade_21871XAS8 <= 1
 0 <= iTrade_24422EWZ8 <= 1
 0 <= iTrade_24422EXP9 <= 1
 0 <= iTrade_314353AA1 <= 1
 0 <= iTrade_36166NAK9 <= 1
 0 <= iTrade_438516CM6 <= 1
 0 <= iTrade_443201AC2 <= 1
 0 <= iTrade_444859BR2 <= 1
 0 <= iTrade_444859BV3 <= 1
 0 <= iTrade_444859BY7 <= 1
 0 <= iTrade_444859CA8 <= 1
 0 <= iTrade_45687VAB2 <= 1
 0 <= iTrade_539830CD9 <= 1
 0 <= iTrade_540424AT5 <= 1
 0 <= iTrade_56501RAN6 <= 1
 0 <= iTrade_655844CR7 <= 1
 0 <= iTrade_655844CT3 <= 1
 0 <= iTrade_75513EAD3 <= 1
 0 <= iTrade_759351AP4 <= 1
 0 <= iTrade_760759BA7 <= 1
 0 <= iTrade_760759BC3 <= 1
 0 <= iTrade_907818FX1 <= 1
 0 <= iTrade_91324PEJ7 <= 1
       fund_enriched.pmv_tgt_Investment_Grade_Credit_Capital_Goods Free
       fund_enriched.pmv_tgt_Investment_Grade_Credit_Insurance Free
       fund_enriched.pmv_tgt_Investment_Grade_Credit_Transportation Free

Binaries
 iTrade_020002BJ9 iTrade_026874DS3 iTrade_081437AT2 iTrade_097023CJ2
 iTrade_13645RAD6 iTrade_13645RBF0 iTrade_14448CBC7 iTrade_15135BAW1
 iTrade_21871XAS8 iTrade_24422EWZ8 iTrade_24422EXP9 iTrade_314353AA1
 iTrade_36166NAK9 iTrade_438516CM6 iTrade_443201AC2 iTrade_444859BR2
 iTrade_444859BV3 iTrade_444859BY7 iTrade_444859CA8 iTrade_45687VAB2
 iTrade_539830CD9 iTrade_540424AT5 iTrade_56501RAN6 iTrade_655844CR7
 iTrade_655844CT3 iTrade_75513EAD3 iTrade_759351AP4 iTrade_760759BA7
 iTrade_760759BC3 iTrade_907818FX1 iTrade_91324PEJ7
End
